n_res = 4;
rc = [ 20, 7, 16, 13 ];
n_tasks = 30;
d = [ 2, 9, 8, 7, 7, 6, 3, 4, 2, 3, 6, 7, 3, 2, 1, 7, 4, 4, 7, 5, 3, 8, 9, 7, 5, 9, 7, 7, 8, 1 ];
rr = [| 8, 7, 5, 0, 2, 1, 0, 10, 0, 0, 2, 0, 10, 3, 0, 0, 0, 3, 0, 5, 0, 0, 0, 0, 0, 0, 0, 8, 0, 0
      | 0, 0, 0, 0, 0, 0, 0, 0, 0, 0, 0, 0, 0, 0, 7, 0, 0, 0, 0, 0, 0, 2, 0, 0, 0, 1, 0, 0, 0, 0
      | 0, 0, 0, 2, 0, 0, 0, 0, 6, 0, 0, 0, 0, 0, 0, 8, 9, 0, 5, 0, 10, 0, 3, 0, 0, 0, 2, 0, 0, 0
      | 0, 0, 0, 0, 0, 0, 6, 0, 0, 8, 0, 6, 0, 0, 0, 0, 0, 0, 0, 0, 0, 0, 0, 4, 7, 0, 0, 0, 9, 7 |];
suc = [ { 2 }, 
        { 3 }, 
        { 4 }, 
        { 5 }, 
        { 6 }, 
        { 7 }, 
        { 8 }, 
        { 9 }, 
        { 10 }, 
        { 11 }, 
        { 12 }, 
        { 13 }, 
        { 14 }, 
        { 15 }, 
        { 16 }, 
        { 17 }, 
        { 18 }, 
        { 19 }, 
        { 20 }, 
        { 21 }, 
        { 22 }, 
        { 23 }, 
        { 24 }, 
        { 25 }, 
        { 26 }, 
        { 27 }, 
        { 28 }, 
        { 29 }, 
        { 30 }, 
        {  }]; 
